<?xml version = "1.0" standalone="yes"?>
<!-- This file has been generated by DOcplex version 2.23.222  -->
<CPLEXSolution version="1.0">
 <header
   problemName="CVRP"
   objectiveValue="19638.2"
  />
 <variables>
  <variable name="x_0_1" index="0" value="1.00000"/>
  <variable name="x_0_2" index="1" value="1.00000"/>
  <variable name="x_0_3" index="2" value="1.00000"/>
  <variable name="x_0_4" index="3" value="1.00000"/>
  <variable name="x_0_5" index="4" value="1.00000"/>
  <variable name="x_0_7" index="6" value="1.00000"/>
  <variable name="x_0_10" index="9" value="1.00000"/>
  <variable name="x_0_11" index="10" value="1.00000"/>
  <variable name="x_0_13" index="12" value="1.00000"/>
  <variable name="x_0_14" index="13" value="1.00000"/>
  <variable name="x_0_15" index="14" value="1.00000"/>
  <variable name="x_0_16" index="15" value="1.00000"/>
  <variable name="x_0_19" index="18" value="1.00000"/>
  <variable name="x_0_22" index="21" value="1.00000"/>
  <variable name="x_0_28" index="27" value="1.00000"/>
  <variable name="x_1_0" index="28" value="1.00000"/>
  <variable name="x_2_0" index="56" value="1.00000"/>
  <variable name="x_3_25" index="108" value="1.00000"/>
  <variable name="x_4_18" index="129" value="1.00000"/>
  <variable name="x_5_9" index="148" value="1.00000"/>
  <variable name="x_6_0" index="168" value="1.00000"/>
  <variable name="x_7_21" index="216" value="1.00000"/>
  <variable name="x_8_0" index="224" value="1.00000"/>
  <variable name="x_9_0" index="252" value="1.00000"/>
  <variable name="x_10_20" index="299" value="1.00000"/>
  <variable name="x_11_0" index="308" value="1.00000"/>
  <variable name="x_12_23" index="358" value="1.00000"/>
  <variable name="x_13_12" index="376" value="1.00000"/>
  <variable name="x_14_0" index="392" value="1.00000"/>
  <variable name="x_15_26" index="445" value="1.00000"/>
  <variable name="x_16_0" index="448" value="1.00000"/>
  <variable name="x_17_0" index="476" value="1.00000"/>
  <variable name="x_18_17" index="521" value="1.00000"/>
  <variable name="x_19_6" index="538" value="1.00000"/>
  <variable name="x_20_0" index="560" value="1.00000"/>
  <variable name="x_21_0" index="588" value="1.00000"/>
  <variable name="x_22_0" index="616" value="1.00000"/>
  <variable name="x_23_0" index="644" value="1.00000"/>
  <variable name="x_24_27" index="698" value="1.00000"/>
  <variable name="x_25_8" index="708" value="1.00000"/>
  <variable name="x_26_0" index="728" value="1.00000"/>
  <variable name="x_27_0" index="756" value="1.00000"/>
  <variable name="x_28_24" index="808" value="1.00000"/>
  <variable name="u_1" index="812" value="22.00000"/>
  <variable name="u_2" index="813" value="14.00000"/>
  <variable name="u_3" index="814" value="7.00000"/>
  <variable name="u_4" index="815" value="1.00000"/>
  <variable name="u_5" index="816" value="7.00000"/>
  <variable name="u_6" index="817" value="22.00000"/>
  <variable name="u_7" index="818" value="6.00000"/>
  <variable name="u_8" index="819" value="23.00000"/>
  <variable name="u_9" index="820" value="23.00000"/>
  <variable name="u_10" index="821" value="13.00000"/>
  <variable name="u_11" index="822" value="18.00000"/>
  <variable name="u_12" index="823" value="10.00000"/>
  <variable name="u_13" index="824" value="4.00000"/>
  <variable name="u_14" index="825" value="23.00000"/>
  <variable name="u_15" index="826" value="8.00000"/>
  <variable name="u_16" index="827" value="18.00000"/>
  <variable name="u_17" index="828" value="23.00000"/>
  <variable name="u_18" index="829" value="21.00000"/>
  <variable name="u_19" index="830" value="3.00000"/>
  <variable name="u_20" index="831" value="23.00000"/>
  <variable name="u_21" index="832" value="23.00000"/>
  <variable name="u_22" index="833" value="19.00000"/>
  <variable name="u_23" index="834" value="21.00000"/>
  <variable name="u_24" index="835" value="15.00000"/>
  <variable name="u_25" index="836" value="21.00000"/>
  <variable name="u_26" index="837" value="22.00000"/>
  <variable name="u_27" index="838" value="23.00000"/>
  <variable name="u_28" index="839" value="5.00000"/>
 </variables>
</CPLEXSolution>
